p td 70 105
0 30
0 26
0 16
1 66
2 60
2 35
2 44
3 11
3 13
4 58
4 27
4 59
4 18
5 44
5 48
6 62
7 43
7 42
7 21
7 69
7 52
8 35
8 38
8 50
9 55
9 13
9 21
10 65
10 62
11 56
13 43
14 54
14 59
14 62
14 42
15 41
16 53
16 50
16 56
16 41
17 59
18 42
18 19
18 51
18 28
19 57
19 52
19 40
19 69
20 53
20 56
20 58
20 45
21 24
21 28
21 57
21 49
21 25
22 68
22 62
22 38
23 65
23 51
23 34
23 24
23 35
24 26
24 39
26 27
27 41
28 29
28 42
29 42
29 47
29 54
31 32
32 69
32 67
32 40
33 47
34 47
35 40
35 48
37 52
38 43
38 49
38 40
39 67
41 42
41 49
42 53
44 66
44 68
44 54
44 58
45 56
45 67
49 57
53 58
55 56
57 59
58 66
59 65
59 68
66 69
